%BLOCK lattice_cart
       2.71550000000000        2.71550000000000        0.00000000000000    
       2.71550000000000        0.00000000000000        2.71550000000000    
       0.00000000000000        2.71550000000000        2.71550000000000    
%ENDBLOCK lattice_cart

%BLOCK positions_frac
   Si             0.000000000000000       0.000000000000000       0.000000000000000
   Si             0.250000000000000       0.250000000000000       0.250000000000000
%ENDBLOCK positions_frac

symmetry_generate

kpoints_mp_grid : 3 3 3

spectral_kpoint_mp_grid : 33 33 33 