%BLOCK lattice_cart
       2.71550000000000        2.71550000000000        0.00000000000000    
       2.71550000000000        0.00000000000000        2.71550000000000    
       0.00000000000000        2.71550000000000        2.71550000000000    
%ENDBLOCK lattice_cart

%BLOCK positions_frac
   Si             0.000000000000000       0.000000000000000       0.000000000000000
   Si             0.250000000000000       0.250000000000000       0.250000000000000
%ENDBLOCK positions_frac

symmetry_generate


%BLOCK SPECTRAL_KPOINT_PATH
0.50000 0.25000 0.75000 # W
0.00000 0.00000 0.00000 # G
0.50000 0.00000 0.50000 # X
0.50000 0.25000 0.75000 # W
0.50000 0.50000 0.50000 # L
0.00000 0.00000 0.00000 # G
%ENDBLOCK SPECTRAL_KPOINT_PATH

kpoints_mp_grid : 3 3 3 